; PUSH cw_3 SWAP2 PUSH cw_2 SWAP1 DUP3 SWAP1 => PUSH cw_2 DUP2 SWAP2 PUSH cw_3 SWAP4
(set-option :produce-proofs true)
; 
(set-info :status unknown)
(declare-fun storage_t ((_ BitVec 256) (_ BitVec 256) (_ BitVec 256) (_ BitVec 256) Int (_ BitVec 256)) (_ BitVec 256))
(declare-fun w_2 () (_ BitVec 256))
(declare-fun w_3 () (_ BitVec 256))
(declare-fun storage_s ((_ BitVec 256) (_ BitVec 256) (_ BitVec 256) (_ BitVec 256) Int (_ BitVec 256)) (_ BitVec 256))
(declare-fun exc_halt_t (Int) Bool)
(declare-fun exc_halt_s (Int) Bool)
(declare-fun stack_t ((_ BitVec 256) (_ BitVec 256) (_ BitVec 256) (_ BitVec 256) Int (_ BitVec 6)) (_ BitVec 256))
(declare-fun stack_s ((_ BitVec 256) (_ BitVec 256) (_ BitVec 256) (_ BitVec 256) Int (_ BitVec 6)) (_ BitVec 256))
(declare-fun sc_t (Int) (_ BitVec 6))
(declare-fun sc_s (Int) (_ BitVec 6))
(declare-fun used_gas_t ((_ BitVec 256) (_ BitVec 256) (_ BitVec 256) (_ BitVec 256) Int) Int)
(declare-fun used_gas_s ((_ BitVec 256) (_ BitVec 256) (_ BitVec 256) (_ BitVec 256) Int) Int)
(assert
 (exists ((x_0 (_ BitVec 256)) (x_1 (_ BitVec 256)) )(let (($x4164 (forall ((w (_ BitVec 256)) )(let ((?x1134 (storage_t x_0 x_1 w_3 w_2 5 w)))
 (let ((?x8197 (storage_s x_0 x_1 w_3 w_2 6 w)))
 (= ?x8197 ?x1134))))
 ))
 (let (($x1885 (exc_halt_t 5)))
 (let (($x772 (exc_halt_s 6)))
 (let (($x11108 (= $x772 $x1885)))
 (let (($x1174 (forall ((n (_ BitVec 6)) )(let ((?x8523 (stack_t x_0 x_1 w_3 w_2 5 n)))
 (let ((?x9656 (stack_s x_0 x_1 w_3 w_2 6 n)))
 (let (($x8510 (= ?x9656 ?x8523)))
 (let ((?x8961 (sc_t 5)))
 (let (($x5791 (bvsle ?x8961 n)))
 (or $x5791 $x8510)))))))
 ))
 (let ((?x8961 (sc_t 5)))
 (let ((?x926 (sc_s 6)))
 (let (($x5889 (= ?x926 ?x8961)))
 (let ((?x3303 (used_gas_t x_0 x_1 w_3 w_2 0)))
 (let ((?x1783 (used_gas_s x_0 x_1 w_3 w_2 0)))
 (let (($x11262 (= ?x1783 ?x3303)))
 (let (($x1687 (forall ((w (_ BitVec 256)) )(let ((?x6153 (storage_t x_0 x_1 w_3 w_2 0 w)))
 (let ((?x10912 (storage_s x_0 x_1 w_3 w_2 0 w)))
 (= ?x10912 ?x6153))))
 ))
 (let (($x56 (exc_halt_t 0)))
 (let (($x57 (exc_halt_s 0)))
 (let (($x58 (= $x57 $x56)))
 (let (($x1408 (forall ((n (_ BitVec 6)) )(let ((?x1859 (stack_t x_0 x_1 w_3 w_2 0 n)))
 (let ((?x2069 (stack_s x_0 x_1 w_3 w_2 0 n)))
 (let (($x3985 (= ?x2069 ?x1859)))
 (let ((?x63 (sc_t 0)))
 (let (($x1948 (bvsle ?x63 n)))
 (or $x1948 $x3985)))))))
 ))
 (let ((?x63 (sc_t 0)))
 (let ((?x72 (sc_s 0)))
 (let (($x73 (= ?x72 ?x63)))
 (let (($x8233 (= $x1885 (or (exc_halt_t 4) (not (bvsle (_ bv0 6) (bvadd (_ bv59 6) (sc_t 4))))))))
 (let (($x1848 (forall ((w (_ BitVec 256)) )(let ((?x7565 (storage_t x_0 x_1 w_3 w_2 4 w)))
 (let ((?x1134 (storage_t x_0 x_1 w_3 w_2 5 w)))
 (= ?x1134 ?x7565))))
 ))
 (let (($x7821 (forall ((n (_ BitVec 6)) )(let ((?x10354 (stack_t x_0 x_1 w_3 w_2 4 n)))
 (let ((?x8523 (stack_t x_0 x_1 w_3 w_2 5 n)))
 (or (bvsle (bvadd (_ bv59 6) (sc_t 4)) n) (= ?x8523 ?x10354)))))
 ))
 (let (($x267 (= (used_gas_t x_0 x_1 w_3 w_2 5) (+ 3 (used_gas_t x_0 x_1 w_3 w_2 4)))))
 (let (($x4333 (= (stack_t x_0 x_1 w_3 w_2 5 (bvadd (_ bv62 6) ?x8961)) (stack_t x_0 x_1 w_3 w_2 4 (bvadd (_ bv62 6) (sc_t 4))))))
 (let (($x2423 (= (stack_t x_0 x_1 w_3 w_2 5 (bvadd (_ bv61 6) ?x8961)) (stack_t x_0 x_1 w_3 w_2 4 (bvadd (_ bv61 6) (sc_t 4))))))
 (let (($x9376 (= (stack_t x_0 x_1 w_3 w_2 5 (bvadd (_ bv60 6) ?x8961)) (stack_t x_0 x_1 w_3 w_2 4 (bvadd (_ bv60 6) (sc_t 4))))))
 (let (($x6368 (= (stack_t x_0 x_1 w_3 w_2 5 (bvadd (_ bv59 6) ?x8961)) (stack_t x_0 x_1 w_3 w_2 4 (bvadd (_ bv63 6) (sc_t 4))))))
 (let (($x4487 (= (stack_t x_0 x_1 w_3 w_2 5 (bvadd (_ bv63 6) ?x8961)) (stack_t x_0 x_1 w_3 w_2 4 (bvadd (_ bv59 6) (sc_t 4))))))
 (let (($x6783 (exc_halt_t 3)))
 (let (($x4543 (or $x6783 (not (= ((_ extract 6 6) (bvadd (_ bv1 7) (concat (_ bv0 1) (sc_t 3)))) (_ bv0 1))))))
 (let (($x7854 (exc_halt_t 4)))
 (let (($x2679 (= $x7854 $x4543)))
 (let (($x1303 (forall ((w (_ BitVec 256)) )(let ((?x8215 (storage_t x_0 x_1 w_3 w_2 3 w)))
 (let ((?x7565 (storage_t x_0 x_1 w_3 w_2 4 w)))
 (= ?x7565 ?x8215))))
 ))
 (let (($x510 (forall ((n (_ BitVec 6)) )(let ((?x6438 (sc_t 3)))
 (let (($x3188 (bvsle ?x6438 n)))
 (let ((?x7414 (stack_t x_0 x_1 w_3 w_2 3 n)))
 (let ((?x10354 (stack_t x_0 x_1 w_3 w_2 4 n)))
 (or (= ?x10354 ?x7414) $x3188))))))
 ))
 (let ((?x4818 (sc_t 4)))
 (let (($x11075 (= ?x4818 (bvadd (_ bv1 6) (sc_t 3)))))
 (let ((?x10631 (used_gas_t x_0 x_1 w_3 w_2 4)))
 (let (($x1330 (= $x6783 (or (exc_halt_t 2) (not (bvsle (_ bv0 6) (bvadd (_ bv61 6) (sc_t 2))))))))
 (let (($x8415 (forall ((w (_ BitVec 256)) )(let ((?x4170 (storage_t x_0 x_1 w_3 w_2 2 w)))
 (let ((?x8215 (storage_t x_0 x_1 w_3 w_2 3 w)))
 (= ?x8215 ?x4170))))
 ))
 (let (($x3831 (forall ((n (_ BitVec 6)) )(let ((?x8644 (stack_t x_0 x_1 w_3 w_2 2 n)))
 (let ((?x7414 (stack_t x_0 x_1 w_3 w_2 3 n)))
 (or (bvsle (bvadd (_ bv61 6) (sc_t 2)) n) (= ?x7414 ?x8644)))))
 ))
 (let ((?x2714 (sc_t 2)))
 (let ((?x6438 (sc_t 3)))
 (let (($x6801 (= ?x6438 ?x2714)))
 (let ((?x8061 (used_gas_t x_0 x_1 w_3 w_2 3)))
 (let (($x2000 (= (stack_t x_0 x_1 w_3 w_2 3 (bvadd (_ bv62 6) ?x6438)) (stack_t x_0 x_1 w_3 w_2 2 (bvadd (_ bv62 6) ?x2714)))))
 (let ((?x9660 (bvadd (_ bv63 6) ?x2714)))
 (let ((?x8269 (stack_t x_0 x_1 w_3 w_2 2 ?x9660)))
 (let (($x11745 (= (stack_t x_0 x_1 w_3 w_2 3 (bvadd (_ bv63 6) ?x6438)) (stack_t x_0 x_1 w_3 w_2 2 (bvadd (_ bv61 6) ?x2714)))))
 (let (($x8377 (exc_halt_t 1)))
 (let (($x2331 (not (= ((_ extract 6 6) (bvadd (_ bv1 7) (concat (_ bv0 1) (sc_t 1)))) (_ bv0 1)))))
 (let (($x2163 (exc_halt_t 2)))
 (let (($x10366 (forall ((w (_ BitVec 256)) )(let ((?x11319 (storage_t x_0 x_1 w_3 w_2 1 w)))
 (let ((?x4170 (storage_t x_0 x_1 w_3 w_2 2 w)))
 (= ?x4170 ?x11319))))
 ))
 (let (($x5423 (forall ((n (_ BitVec 6)) )(let ((?x8527 (stack_t x_0 x_1 w_3 w_2 1 n)))
 (let ((?x8644 (stack_t x_0 x_1 w_3 w_2 2 n)))
 (or (= ?x8644 ?x8527) (bvsle (bvadd (_ bv62 6) (sc_t 1)) n)))))
 ))
 (let (($x8154 (= ?x2714 (bvadd (_ bv1 6) (sc_t 1)))))
 (let ((?x4098 (used_gas_t x_0 x_1 w_3 w_2 2)))
 (let (($x11162 (= (stack_t x_0 x_1 w_3 w_2 2 (bvadd (_ bv63 6) (sc_t 1))) (stack_t x_0 x_1 w_3 w_2 1 (bvadd (_ bv63 6) (sc_t 1))))))
 (let ((?x7154 (sc_t 1)))
 (let ((?x5451 (bvadd (_ bv62 6) ?x7154)))
 (let ((?x3860 (stack_t x_0 x_1 w_3 w_2 1 ?x5451)))
 (let (($x3863 (= $x8377 (or $x56 (not (= ((_ extract 6 6) (bvadd (_ bv1 7) (concat (_ bv0 1) ?x63))) (_ bv0 1)))))))
 (let (($x502 (forall ((w (_ BitVec 256)) )(let ((?x6153 (storage_t x_0 x_1 w_3 w_2 0 w)))
 (let ((?x11319 (storage_t x_0 x_1 w_3 w_2 1 w)))
 (= ?x11319 ?x6153))))
 ))
 (let (($x2486 (forall ((n (_ BitVec 6)) )(let ((?x1859 (stack_t x_0 x_1 w_3 w_2 0 n)))
 (let ((?x8527 (stack_t x_0 x_1 w_3 w_2 1 n)))
 (let ((?x63 (sc_t 0)))
 (let (($x1948 (bvsle ?x63 n)))
 (or $x1948 (= ?x8527 ?x1859)))))))
 ))
 (let (($x10065 (= ?x7154 (bvadd (_ bv1 6) ?x63))))
 (let (($x5038 (= $x772 (or (exc_halt_s 5) (not (bvsle (_ bv0 6) (bvadd (_ bv62 6) (sc_s 5))))))))
 (let (($x4255 (forall ((w (_ BitVec 256)) )(let ((?x5360 (storage_s x_0 x_1 w_3 w_2 5 w)))
 (let ((?x8197 (storage_s x_0 x_1 w_3 w_2 6 w)))
 (= ?x8197 ?x5360))))
 ))
 (let (($x11228 (forall ((n (_ BitVec 6)) )(let ((?x6209 (stack_s x_0 x_1 w_3 w_2 5 n)))
 (let ((?x9656 (stack_s x_0 x_1 w_3 w_2 6 n)))
 (let ((?x4319 (sc_s 5)))
 (let ((?x10028 (bvadd (_ bv62 6) ?x4319)))
 (let (($x1648 (bvsle ?x10028 n)))
 (or $x1648 (= ?x9656 ?x6209))))))))
 ))
 (let ((?x4319 (sc_s 5)))
 (let (($x9052 (= ?x926 ?x4319)))
 (let (($x1735 (= (used_gas_s x_0 x_1 w_3 w_2 6) (+ 3 (used_gas_s x_0 x_1 w_3 w_2 5)))))
 (let ((?x4217 (bvadd (_ bv63 6) ?x4319)))
 (let ((?x2260 (stack_s x_0 x_1 w_3 w_2 5 ?x4217)))
 (let (($x5051 (= (stack_s x_0 x_1 w_3 w_2 6 (bvadd (_ bv63 6) ?x926)) (stack_s x_0 x_1 w_3 w_2 5 (bvadd (_ bv62 6) ?x4319)))))
 (let (($x7172 (exc_halt_s 4)))
 (let (($x4340 (not (= ((_ extract 6 6) (bvadd (_ bv1 7) (concat (_ bv0 1) (sc_s 4)))) (_ bv0 1)))))
 (let (($x11317 (exc_halt_s 5)))
 (let (($x2273 (forall ((w (_ BitVec 256)) )(let ((?x9566 (storage_s x_0 x_1 w_3 w_2 4 w)))
 (let ((?x5360 (storage_s x_0 x_1 w_3 w_2 5 w)))
 (= ?x5360 ?x9566))))
 ))
 (let (($x10506 (forall ((n (_ BitVec 6)) )(let ((?x7519 (stack_s x_0 x_1 w_3 w_2 4 n)))
 (let ((?x6209 (stack_s x_0 x_1 w_3 w_2 5 n)))
 (or (bvsle (bvadd (_ bv61 6) (sc_s 4)) n) (= ?x6209 ?x7519)))))
 ))
 (let (($x7619 (= ?x4319 (bvadd (_ bv1 6) (sc_s 4)))))
 (let ((?x11840 (used_gas_s x_0 x_1 w_3 w_2 5)))
 (let ((?x4305 (sc_s 4)))
 (let ((?x6098 (bvadd (_ bv63 6) ?x4305)))
 (let ((?x10755 (stack_s x_0 x_1 w_3 w_2 4 ?x6098)))
 (let ((?x2417 (bvadd (_ bv62 6) ?x4305)))
 (let ((?x804 (stack_s x_0 x_1 w_3 w_2 4 ?x2417)))
 (let ((?x6818 (bvadd (_ bv61 6) ?x4305)))
 (let ((?x7028 (stack_s x_0 x_1 w_3 w_2 4 ?x6818)))
 (let (($x9358 (= $x7172 (or (exc_halt_s 3) (not (bvsle (_ bv0 6) (bvadd (_ bv62 6) (sc_s 3))))))))
 (let (($x6097 (forall ((w (_ BitVec 256)) )(let ((?x5988 (storage_s x_0 x_1 w_3 w_2 3 w)))
 (let ((?x9566 (storage_s x_0 x_1 w_3 w_2 4 w)))
 (= ?x9566 ?x5988))))
 ))
 (let (($x2802 (forall ((n (_ BitVec 6)) )(let ((?x4481 (stack_s x_0 x_1 w_3 w_2 3 n)))
 (let ((?x7519 (stack_s x_0 x_1 w_3 w_2 4 n)))
 (let ((?x275 (sc_s 3)))
 (let ((?x2606 (bvadd (_ bv62 6) ?x275)))
 (let (($x4179 (bvsle ?x2606 n)))
 (or $x4179 (= ?x7519 ?x4481))))))))
 ))
 (let ((?x275 (sc_s 3)))
 (let (($x1480 (= ?x4305 ?x275)))
 (let ((?x1985 (used_gas_s x_0 x_1 w_3 w_2 4)))
 (let (($x11463 (not (= ((_ extract 6 6) (bvadd (_ bv1 7) (concat (_ bv0 1) (sc_s 2)))) (_ bv0 1)))))
 (let (($x247 (exc_halt_s 2)))
 (let (($x292 (exc_halt_s 3)))
 (let (($x3053 (= $x292 (or $x247 $x11463))))
 (let (($x1157 (forall ((w (_ BitVec 256)) )(let ((?x5445 (storage_s x_0 x_1 w_3 w_2 2 w)))
 (let ((?x5988 (storage_s x_0 x_1 w_3 w_2 3 w)))
 (= ?x5988 ?x5445))))
 ))
 (let (($x7029 (forall ((n (_ BitVec 6)) )(let ((?x10458 (stack_s x_0 x_1 w_3 w_2 2 n)))
 (let ((?x4481 (stack_s x_0 x_1 w_3 w_2 3 n)))
 (let ((?x218 (sc_s 2)))
 (let (($x1619 (bvsle ?x218 n)))
 (or $x1619 (= ?x4481 ?x10458)))))))
 ))
 (let (($x5593 (= ?x275 (bvadd (_ bv1 6) (sc_s 2)))))
 (let ((?x8182 (used_gas_s x_0 x_1 w_3 w_2 3)))
 (let (($x8227 (= $x247 (or (exc_halt_s 1) (not (bvsle (_ bv0 6) (bvadd (_ bv61 6) (sc_s 1))))))))
 (let (($x8698 (forall ((w (_ BitVec 256)) )(let ((?x313 (storage_s x_0 x_1 w_3 w_2 1 w)))
 (let ((?x5445 (storage_s x_0 x_1 w_3 w_2 2 w)))
 (= ?x5445 ?x313))))
 ))
 (let (($x6308 (forall ((n (_ BitVec 6)) )(let ((?x8179 (stack_s x_0 x_1 w_3 w_2 1 n)))
 (let ((?x10458 (stack_s x_0 x_1 w_3 w_2 2 n)))
 (let ((?x154 (sc_s 1)))
 (let ((?x2805 (bvadd (_ bv61 6) ?x154)))
 (let (($x984 (bvsle ?x2805 n)))
 (or $x984 (= ?x10458 ?x8179))))))))
 ))
 (let ((?x154 (sc_s 1)))
 (let ((?x218 (sc_s 2)))
 (let (($x10727 (= ?x218 ?x154)))
 (let ((?x8503 (used_gas_s x_0 x_1 w_3 w_2 2)))
 (let (($x10520 (= (stack_s x_0 x_1 w_3 w_2 2 (bvadd (_ bv62 6) ?x218)) (stack_s x_0 x_1 w_3 w_2 1 (bvadd (_ bv62 6) ?x154)))))
 (let (($x1059 (= (stack_s x_0 x_1 w_3 w_2 2 (bvadd (_ bv61 6) ?x218)) (stack_s x_0 x_1 w_3 w_2 1 (bvadd (_ bv63 6) ?x154)))))
 (let (($x4059 (= (stack_s x_0 x_1 w_3 w_2 2 (bvadd (_ bv63 6) ?x218)) (stack_s x_0 x_1 w_3 w_2 1 (bvadd (_ bv61 6) ?x154)))))
 (let (($x189 (exc_halt_s 1)))
 (let (($x2601 (= $x189 (or $x57 (not (= ((_ extract 6 6) (bvadd (_ bv1 7) (concat (_ bv0 1) ?x72))) (_ bv0 1)))))))
 (let (($x9393 (forall ((w (_ BitVec 256)) )(let ((?x10912 (storage_s x_0 x_1 w_3 w_2 0 w)))
 (let ((?x313 (storage_s x_0 x_1 w_3 w_2 1 w)))
 (= ?x313 ?x10912))))
 ))
 (let (($x1103 (forall ((n (_ BitVec 6)) )(let ((?x72 (sc_s 0)))
 (let (($x6679 (bvsle ?x72 n)))
 (let ((?x2069 (stack_s x_0 x_1 w_3 w_2 0 n)))
 (let ((?x8179 (stack_s x_0 x_1 w_3 w_2 1 n)))
 (or (= ?x8179 ?x2069) $x6679))))))
 ))
 (let (($x5696 (= ?x154 (bvadd (_ bv1 6) ?x72))))
 (let (($x5822 (forall ((w (_ BitVec 256)) )(let ((?x10912 (storage_s x_0 x_1 w_3 w_2 0 w)))
 (= ?x10912 (_ bv0 256))))
 ))
 (let (($x2544 (= ?x1783 0)))
 (let (($x7631 (not $x57)))
 (let (($x5143 (= (stack_s x_0 x_1 w_3 w_2 0 (_ bv1 6)) x_1)))
 (let (($x3008 (= (stack_s x_0 x_1 w_3 w_2 0 (_ bv0 6)) x_0)))
 (let (($x11128 (= ?x72 (_ bv2 6))))
 (and $x11128 $x3008 $x5143 $x7631 $x2544 $x5822 (= (stack_s x_0 x_1 w_3 w_2 1 ?x72) w_3) (= (used_gas_s x_0 x_1 w_3 w_2 1) (+ 3 ?x1783)) $x5696 $x1103 $x9393 $x2601 $x4059 $x1059 $x10520 (= ?x8503 (+ 3 (used_gas_s x_0 x_1 w_3 w_2 1))) $x10727 $x6308 $x8698 $x8227 (= (stack_s x_0 x_1 w_3 w_2 3 ?x218) w_2) (= ?x8182 (+ 3 ?x8503)) $x5593 $x7029 $x1157 $x3053 (= ?x10755 (stack_s x_0 x_1 w_3 w_2 3 (bvadd (_ bv62 6) ?x275))) (= ?x804 (stack_s x_0 x_1 w_3 w_2 3 (bvadd (_ bv63 6) ?x275))) (= ?x1985 (+ 3 ?x8182)) $x1480 $x2802 $x6097 $x9358 (= ?x2260 ?x7028) (= (stack_s x_0 x_1 w_3 w_2 5 ?x6818) ?x7028) (= (stack_s x_0 x_1 w_3 w_2 5 ?x2417) ?x804) (= (stack_s x_0 x_1 w_3 w_2 5 ?x6098) ?x10755) (= ?x11840 (+ 3 ?x1985)) $x7619 $x10506 $x2273 (= $x11317 (or (not (bvsle (_ bv0 6) ?x6818)) $x4340 $x7172)) $x5051 (= (stack_s x_0 x_1 w_3 w_2 6 (bvadd (_ bv62 6) ?x926)) ?x2260) $x1735 $x9052 $x11228 $x4255 $x5038 (= (stack_t x_0 x_1 w_3 w_2 1 ?x63) w_2) (= (used_gas_t x_0 x_1 w_3 w_2 1) (+ 3 ?x3303)) $x10065 $x2486 $x502 $x3863 (= ?x8269 ?x3860) (= (stack_t x_0 x_1 w_3 w_2 2 ?x5451) ?x3860) $x11162 (= ?x4098 (+ 3 (used_gas_t x_0 x_1 w_3 w_2 1))) $x8154 $x5423 $x10366 (= $x2163 (or (not (bvsle (_ bv0 6) ?x5451)) $x2331 $x8377)) $x11745 (= (stack_t x_0 x_1 w_3 w_2 3 (bvadd (_ bv61 6) ?x6438)) ?x8269) $x2000 (= ?x8061 (+ 3 ?x4098)) $x6801 $x3831 $x8415 $x1330 (= (stack_t x_0 x_1 w_3 w_2 4 ?x6438) w_3) (= ?x10631 (+ 3 ?x8061)) $x11075 $x510 $x1303 $x2679 $x4487 $x6368 $x9376 $x2423 $x4333 $x267 (= ?x8961 ?x4818) $x7821 $x1848 $x8233 $x73 $x1408 $x58 $x1687 $x11262 (not (and $x5889 $x1174 $x11108 $x4164)))))))))))))))))))))))))))))))))))))))))))))))))))))))))))))))))))))))))))))))))))))))))))))))))))))))))))))))))))))))))))))
 )
(check-sat)
(get-proof)
